nbV = 13;
nbE = 12;
map = [|false,true,true,false,false,false,false,false,false,false,false,false
|false,false,false,false,false,true,false,false,false,false,false,false
|false,false,false,false,false,false,false,false,false,true,false,false
|false,false,false,false,false,false,false,true,true,false,false,false
|true,false,false,false,false,false,false,false,false,false,false,false
|false,false,false,false,false,false,false,false,false,false,true,true
|false,false,false,false,false,false,false,false,false,false,true,false
|false,false,true,false,false,false,false,false,false,false,false,false
|false,true,false,true,false,false,false,false,false,false,false,false
|true,false,false,false,true,false,false,false,false,false,false,false
|false,false,false,true,false,true,true,false,false,false,false,false
|false,false,false,false,false,false,true,false,true,true,false,false
|false,false,false,false,true,false,false,true,false,false,false,true
|];
endnodes = [|false,false,false,false,true,false,false,false,false,true,false,false,false
|true,false,false,false,false,false,false,false,true,false,false,false,false
|true,false,false,false,false,false,false,true,false,false,false,false,false
|false,false,false,false,false,false,false,false,true,false,true,false,false
|false,false,false,false,false,false,false,false,false,true,false,false,true
|false,true,false,false,false,false,false,false,false,false,true,false,false
|false,false,false,false,false,false,false,false,false,false,true,true,false
|false,false,false,true,false,false,false,false,false,false,false,false,true
|false,false,false,true,false,false,false,false,false,false,false,true,false
|false,false,true,false,false,false,false,false,false,false,false,true,false
|false,false,false,false,false,true,true,false,false,false,false,false,false
|false,false,false,false,false,true,false,false,false,false,false,false,true
|];
terminals = {1,2,3,4,5,6,7,8,9,10};
link_cost = [4103202,620660,694882,707657,1302562,2902654,1606529,668791,2178665,440610,3313254,1086852];
